n_res = 4;
rc = [ 18, 13, 32, 12 ];
n_tasks = 30;
d = [ 1, 4, 8, 6, 3, 3, 9, 2, 6, 8, 4, 9, 4, 10, 9, 4, 10, 9, 9, 9, 7, 3, 2, 4, 7, 1, 2, 1, 1, 2 ];
rr = [| 2, 0, 0, 0, 0, 0, 0, 0, 1, 0, 0, 0, 0, 0, 0, 0, 7, 8, 0, 0, 0, 0, 0, 0, 0, 10, 0, 0, 0, 0
      | 0, 0, 7, 1, 2, 0, 0, 2, 0, 0, 0, 0, 0, 8, 0, 0, 0, 0, 0, 5, 5, 0, 0, 8, 0, 0, 0, 1, 0, 0
      | 0, 4, 0, 0, 0, 0, 6, 0, 0, 8, 1, 8, 0, 0, 0, 6, 0, 0, 1, 0, 0, 1, 10, 0, 0, 0, 9, 0, 0, 7
      | 0, 0, 0, 0, 0, 7, 0, 0, 0, 0, 0, 0, 1, 0, 5, 0, 0, 0, 0, 0, 0, 0, 0, 0, 10, 0, 0, 0, 8, 0 |];
suc = [ { 2 }, 
        { 3 }, 
        { 4 }, 
        { 5 }, 
        { 6 }, 
        { 7 }, 
        { 8 }, 
        { 9 }, 
        { 10 }, 
        { 11 }, 
        { 12 }, 
        { 13 }, 
        { 14 }, 
        { 15 }, 
        { 16 }, 
        { 17 }, 
        { 18 }, 
        { 19 }, 
        { 20 }, 
        { 21 }, 
        { 22 }, 
        { 23 }, 
        { 24 }, 
        { 25 }, 
        { 26 }, 
        { 27 }, 
        { 28 }, 
        { 29 }, 
        { 30 }, 
        {  }]; 
